b=1 type=0 x=1 y=67
b=2 type=1 x=1 y=182
b=3 type=2 x=1 y=40
b=4 type=5 x=1 y=53
b=5 type=6 x=225 y=1
b=6 type=7 x=1 y=218
b=7 type=10 x=1 y=79
b=8 type=11 x=1 y=195
b=9 type=13 x=1 y=220
b=10 type=16 x=1 y=207
b=11 type=18 x=1 y=1
b=12 type=20 x=1 y=27
----------
